Generated by dftfe_to_poscar.py
1.0
  7.9499432029999086   0.0000000000000000   0.0000000000000000
  0.0000000000000000   7.9499121297140842   0.0000000000000000
  0.0000000000000000   0.0000000000000000   8.1654982480891363
Ba Ti O
8 8 24
Direct
0.0000000000000000 0.0000000000000000 0.4957182410000000
0.0000000000000000 0.0000000000000000 0.9957182409999999
0.0000000000000000 0.5000000000000000 0.4957182410000000
0.0000000000000000 0.5000000000000000 0.9957182409999999
0.5000000000000000 0.0000000000000000 0.4957182410000000
0.5000000000000000 0.0000000000000000 0.9957182409999999
0.5000000000000000 0.5000000000000000 0.4957182410000000
0.5000000000000000 0.5000000000000000 0.9957182409999999
0.2500000000000000 0.2500000000000000 0.2540211680000000
0.2500000000000000 0.2500000000000000 0.7540211680000000
0.2500000000000000 0.7500000000000000 0.2540211680000000
0.2500000000000000 0.7500000000000000 0.7540211680000000
0.7500000000000000 0.2500000000000000 0.2540211680000000
0.7500000000000000 0.2500000000000000 0.7540211680000000
0.7500000000000000 0.7500000000000000 0.2540211680000000
0.7500000000000000 0.7500000000000000 0.7540211680000000
0.2500000000000000 0.2500000000000000 0.4791263340000000
0.2500000000000000 0.2500000000000000 0.9791263340000000
0.2500000000000000 0.7500000000000000 0.4791263340000000
0.2500000000000000 0.7500000000000000 0.9791263340000000
0.7500000000000000 0.2500000000000000 0.4791263340000000
0.7500000000000000 0.2500000000000000 0.9791263340000000
0.7500000000000000 0.7500000000000000 0.4791263340000000
0.7500000000000000 0.7500000000000000 0.9791263340000000
0.2500000000000000 0.0000000000000000 0.2363411780000000
0.2500000000000000 0.0000000000000000 0.7363411780000000
0.2500000000000000 0.5000000000000000 0.2363411780000000
0.2500000000000000 0.5000000000000000 0.7363411780000000
0.7500000000000000 0.0000000000000000 0.2363411780000000
0.7500000000000000 0.0000000000000000 0.7363411780000000
0.7500000000000000 0.5000000000000000 0.2363411780000000
0.7500000000000000 0.5000000000000000 0.7363411780000000
0.0000000000000000 0.2500000000000000 0.2363410290000000
0.0000000000000000 0.2500000000000000 0.7363410000000000
0.0000000000000000 0.7500000000000000 0.2363410290000000
0.0000000000000000 0.7500000000000000 0.7363410000000000
0.5000000000000000 0.2500000000000000 0.2363410290000000
0.5000000000000000 0.2500000000000000 0.7363410000000000
0.5000000000000000 0.7500000000000000 0.2363410290000000
0.5000000000000000 0.7500000000000000 0.7363410000000000
