generated by phonopy
   1.0
    15.8998864059998173    0.0000000000000000    0.0000000000000000
     0.0000000000000000   15.8998242594281685    0.0000000000000000
     0.0000000000000000    0.0000000000000000   16.3309964961782725
Ba Ti O
  64   64  192
Direct
  0.0000000000000000  0.0000000000000000  0.2478591205000000
  0.5000000000000000  0.0000000000000000  0.2478591205000000
  0.0000000000000000  0.5000000000000000  0.2478591205000000
  0.5000000000000000  0.5000000000000000  0.2478591205000000
  0.0000000000000000  0.0000000000000000  0.7478591205000000
  0.5000000000000000  0.0000000000000000  0.7478591205000000
  0.0000000000000000  0.5000000000000000  0.7478591205000000
  0.5000000000000000  0.5000000000000000  0.7478591205000000
  0.0000000000000000  0.0000000000000000  0.4978591205000000
  0.5000000000000000  0.0000000000000000  0.4978591205000000
  0.0000000000000000  0.5000000000000000  0.4978591205000000
  0.5000000000000000  0.5000000000000000  0.4978591205000000
  0.0000000000000000  0.0000000000000000  0.9978591205000000
  0.5000000000000000  0.0000000000000000  0.9978591205000000
  0.0000000000000000  0.5000000000000000  0.9978591205000000
  0.5000000000000000  0.5000000000000000  0.9978591205000000
  0.0000000000000000  0.2500000000000000  0.2478591205000000
  0.5000000000000000  0.2500000000000000  0.2478591205000000
  0.0000000000000000  0.7500000000000000  0.2478591205000000
  0.5000000000000000  0.7500000000000000  0.2478591205000000
  0.0000000000000000  0.2500000000000000  0.7478591205000000
  0.5000000000000000  0.2500000000000000  0.7478591205000000
  0.0000000000000000  0.7500000000000000  0.7478591205000000
  0.5000000000000000  0.7500000000000000  0.7478591205000000
  0.0000000000000000  0.2500000000000000  0.4978591205000000
  0.5000000000000000  0.2500000000000000  0.4978591205000000
  0.0000000000000000  0.7500000000000000  0.4978591205000000
  0.5000000000000000  0.7500000000000000  0.4978591205000000
  0.0000000000000000  0.2500000000000000  0.9978591205000000
  0.5000000000000000  0.2500000000000000  0.9978591205000000
  0.0000000000000000  0.7500000000000000  0.9978591205000000
  0.5000000000000000  0.7500000000000000  0.9978591205000000
  0.2500000000000000  0.0000000000000000  0.2478591205000000
  0.7500000000000000  0.0000000000000000  0.2478591205000000
  0.2500000000000000  0.5000000000000000  0.2478591205000000
  0.7500000000000000  0.5000000000000000  0.2478591205000000
  0.2500000000000000  0.0000000000000000  0.7478591205000000
  0.7500000000000000  0.0000000000000000  0.7478591205000000
  0.2500000000000000  0.5000000000000000  0.7478591205000000
  0.7500000000000000  0.5000000000000000  0.7478591205000000
  0.2500000000000000  0.0000000000000000  0.4978591205000000
  0.7500000000000000  0.0000000000000000  0.4978591205000000
  0.2500000000000000  0.5000000000000000  0.4978591205000000
  0.7500000000000000  0.5000000000000000  0.4978591205000000
  0.2500000000000000  0.0000000000000000  0.9978591205000000
  0.7500000000000000  0.0000000000000000  0.9978591205000000
  0.2500000000000000  0.5000000000000000  0.9978591205000000
  0.7500000000000000  0.5000000000000000  0.9978591205000000
  0.2500000000000000  0.2500000000000000  0.2478591205000000
  0.7500000000000000  0.2500000000000000  0.2478591205000000
  0.2500000000000000  0.7500000000000000  0.2478591205000000
  0.7500000000000000  0.7500000000000000  0.2478591205000000
  0.2500000000000000  0.2500000000000000  0.7478591205000000
  0.7500000000000000  0.2500000000000000  0.7478591205000000
  0.2500000000000000  0.7500000000000000  0.7478591205000000
  0.7500000000000000  0.7500000000000000  0.7478591205000000
  0.2500000000000000  0.2500000000000000  0.4978591205000000
  0.7500000000000000  0.2500000000000000  0.4978591205000000
  0.2500000000000000  0.7500000000000000  0.4978591205000000
  0.7500000000000000  0.7500000000000000  0.4978591205000000
  0.2500000000000000  0.2500000000000000  0.9978591205000000
  0.7500000000000000  0.2500000000000000  0.9978591205000000
  0.2500000000000000  0.7500000000000000  0.9978591205000000
  0.7500000000000000  0.7500000000000000  0.9978591205000000
  0.1250000000000000  0.1250000000000000  0.1270105840000000
  0.6250000000000000  0.1250000000000000  0.1270105840000000
  0.1250000000000000  0.6250000000000000  0.1270105840000000
  0.6250000000000000  0.6250000000000000  0.1270105840000000
  0.1250000000000000  0.1250000000000000  0.6270105840000000
  0.6250000000000000  0.1250000000000000  0.6270105840000000
  0.1250000000000000  0.6250000000000000  0.6270105840000000
  0.6250000000000000  0.6250000000000000  0.6270105840000000
  0.1250000000000000  0.1250000000000000  0.3770105840000000
  0.6250000000000000  0.1250000000000000  0.3770105840000000
  0.1250000000000000  0.6250000000000000  0.3770105840000000
  0.6250000000000000  0.6250000000000000  0.3770105840000000
  0.1250000000000000  0.1250000000000000  0.8770105840000000
  0.6250000000000000  0.1250000000000000  0.8770105840000000
  0.1250000000000000  0.6250000000000000  0.8770105840000000
  0.6250000000000000  0.6250000000000000  0.8770105840000000
  0.1250000000000000  0.3750000000000000  0.1270105840000000
  0.6250000000000000  0.3750000000000000  0.1270105840000000
  0.1250000000000000  0.8750000000000000  0.1270105840000000
  0.6250000000000000  0.8750000000000000  0.1270105840000000
  0.1250000000000000  0.3750000000000000  0.6270105840000000
  0.6250000000000000  0.3750000000000000  0.6270105840000000
  0.1250000000000000  0.8750000000000000  0.6270105840000000
  0.6250000000000000  0.8750000000000000  0.6270105840000000
  0.1250000000000000  0.3750000000000000  0.3770105840000000
  0.6250000000000000  0.3750000000000000  0.3770105840000000
  0.1250000000000000  0.8750000000000000  0.3770105840000000
  0.6250000000000000  0.8750000000000000  0.3770105840000000
  0.1250000000000000  0.3750000000000000  0.8770105840000000
  0.6250000000000000  0.3750000000000000  0.8770105840000000
  0.1250000000000000  0.8750000000000000  0.8770105840000000
  0.6250000000000000  0.8750000000000000  0.8770105840000000
  0.3750000000000000  0.1250000000000000  0.1270105840000000
  0.8750000000000000  0.1250000000000000  0.1270105840000000
  0.3750000000000000  0.6250000000000000  0.1270105840000000
  0.8750000000000000  0.6250000000000000  0.1270105840000000
  0.3750000000000000  0.1250000000000000  0.6270105840000000
  0.8750000000000000  0.1250000000000000  0.6270105840000000
  0.3750000000000000  0.6250000000000000  0.6270105840000000
  0.8750000000000000  0.6250000000000000  0.6270105840000000
  0.3750000000000000  0.1250000000000000  0.3770105840000000
  0.8750000000000000  0.1250000000000000  0.3770105840000000
  0.3750000000000000  0.6250000000000000  0.3770105840000000
  0.8750000000000000  0.6250000000000000  0.3770105840000000
  0.3750000000000000  0.1250000000000000  0.8770105840000000
  0.8750000000000000  0.1250000000000000  0.8770105840000000
  0.3750000000000000  0.6250000000000000  0.8770105840000000
  0.8750000000000000  0.6250000000000000  0.8770105840000000
  0.3750000000000000  0.3750000000000000  0.1270105840000000
  0.8750000000000000  0.3750000000000000  0.1270105840000000
  0.3750000000000000  0.8750000000000000  0.1270105840000000
  0.8750000000000000  0.8750000000000000  0.1270105840000000
  0.3750000000000000  0.3750000000000000  0.6270105840000000
  0.8750000000000000  0.3750000000000000  0.6270105840000000
  0.3750000000000000  0.8750000000000000  0.6270105840000000
  0.8750000000000000  0.8750000000000000  0.6270105840000000
  0.3750000000000000  0.3750000000000000  0.3770105840000000
  0.8750000000000000  0.3750000000000000  0.3770105840000000
  0.3750000000000000  0.8750000000000000  0.3770105840000000
  0.8750000000000000  0.8750000000000000  0.3770105840000000
  0.3750000000000000  0.3750000000000000  0.8770105840000000
  0.8750000000000000  0.3750000000000000  0.8770105840000000
  0.3750000000000000  0.8750000000000000  0.8770105840000000
  0.8750000000000000  0.8750000000000000  0.8770105840000000
  0.1250000000000000  0.1250000000000000  0.2395631670000000
  0.6250000000000000  0.1250000000000000  0.2395631670000000
  0.1250000000000000  0.6250000000000000  0.2395631670000000
  0.6250000000000000  0.6250000000000000  0.2395631670000000
  0.1250000000000000  0.1250000000000000  0.7395631670000000
  0.6250000000000000  0.1250000000000000  0.7395631670000000
  0.1250000000000000  0.6250000000000000  0.7395631670000000
  0.6250000000000000  0.6250000000000000  0.7395631670000000
  0.1250000000000000  0.1250000000000000  0.4895631670000000
  0.6250000000000000  0.1250000000000000  0.4895631670000000
  0.1250000000000000  0.6250000000000000  0.4895631670000000
  0.6250000000000000  0.6250000000000000  0.4895631670000000
  0.1250000000000000  0.1250000000000000  0.9895631670000000
  0.6250000000000000  0.1250000000000000  0.9895631670000000
  0.1250000000000000  0.6250000000000000  0.9895631670000000
  0.6250000000000000  0.6250000000000000  0.9895631670000000
  0.1250000000000000  0.3750000000000000  0.2395631670000000
  0.6250000000000000  0.3750000000000000  0.2395631670000000
  0.1250000000000000  0.8750000000000000  0.2395631670000000
  0.6250000000000000  0.8750000000000000  0.2395631670000000
  0.1250000000000000  0.3750000000000000  0.7395631670000000
  0.6250000000000000  0.3750000000000000  0.7395631670000000
  0.1250000000000000  0.8750000000000000  0.7395631670000000
  0.6250000000000000  0.8750000000000000  0.7395631670000000
  0.1250000000000000  0.3750000000000000  0.4895631670000000
  0.6250000000000000  0.3750000000000000  0.4895631670000000
  0.1250000000000000  0.8750000000000000  0.4895631670000000
  0.6250000000000000  0.8750000000000000  0.4895631670000000
  0.1250000000000000  0.3750000000000000  0.9895631670000000
  0.6250000000000000  0.3750000000000000  0.9895631670000000
  0.1250000000000000  0.8750000000000000  0.9895631670000000
  0.6250000000000000  0.8750000000000000  0.9895631670000000
  0.3750000000000000  0.1250000000000000  0.2395631670000000
  0.8750000000000000  0.1250000000000000  0.2395631670000000
  0.3750000000000000  0.6250000000000000  0.2395631670000000
  0.8750000000000000  0.6250000000000000  0.2395631670000000
  0.3750000000000000  0.1250000000000000  0.7395631670000000
  0.8750000000000000  0.1250000000000000  0.7395631670000000
  0.3750000000000000  0.6250000000000000  0.7395631670000000
  0.8750000000000000  0.6250000000000000  0.7395631670000000
  0.3750000000000000  0.1250000000000000  0.4895631670000000
  0.8750000000000000  0.1250000000000000  0.4895631670000000
  0.3750000000000000  0.6250000000000000  0.4895631670000000
  0.8750000000000000  0.6250000000000000  0.4895631670000000
  0.3750000000000000  0.1250000000000000  0.9895631670000000
  0.8750000000000000  0.1250000000000000  0.9895631670000000
  0.3750000000000000  0.6250000000000000  0.9895631670000000
  0.8750000000000000  0.6250000000000000  0.9895631670000000
  0.3750000000000000  0.3750000000000000  0.2395631670000000
  0.8750000000000000  0.3750000000000000  0.2395631670000000
  0.3750000000000000  0.8750000000000000  0.2395631670000000
  0.8750000000000000  0.8750000000000000  0.2395631670000000
  0.3750000000000000  0.3750000000000000  0.7395631670000000
  0.8750000000000000  0.3750000000000000  0.7395631670000000
  0.3750000000000000  0.8750000000000000  0.7395631670000000
  0.8750000000000000  0.8750000000000000  0.7395631670000000
  0.3750000000000000  0.3750000000000000  0.4895631670000000
  0.8750000000000000  0.3750000000000000  0.4895631670000000
  0.3750000000000000  0.8750000000000000  0.4895631670000000
  0.8750000000000000  0.8750000000000000  0.4895631670000000
  0.3750000000000000  0.3750000000000000  0.9895631670000000
  0.8750000000000000  0.3750000000000000  0.9895631670000000
  0.3750000000000000  0.8750000000000000  0.9895631670000000
  0.8750000000000000  0.8750000000000000  0.9895631670000000
  0.1250000000000000  0.0000000000000000  0.1181705890000000
  0.6250000000000000  0.0000000000000000  0.1181705890000000
  0.1250000000000000  0.5000000000000000  0.1181705890000000
  0.6250000000000000  0.5000000000000000  0.1181705890000000
  0.1250000000000000  0.0000000000000000  0.6181705890000000
  0.6250000000000000  0.0000000000000000  0.6181705890000000
  0.1250000000000000  0.5000000000000000  0.6181705890000000
  0.6250000000000000  0.5000000000000000  0.6181705890000000
  0.1250000000000000  0.0000000000000000  0.3681705890000000
  0.6250000000000000  0.0000000000000000  0.3681705890000000
  0.1250000000000000  0.5000000000000000  0.3681705890000000
  0.6250000000000000  0.5000000000000000  0.3681705890000000
  0.1250000000000000  0.0000000000000000  0.8681705890000000
  0.6250000000000000  0.0000000000000000  0.8681705890000000
  0.1250000000000000  0.5000000000000000  0.8681705890000000
  0.6250000000000000  0.5000000000000000  0.8681705890000000
  0.1250000000000000  0.2500000000000000  0.1181705890000000
  0.6250000000000000  0.2500000000000000  0.1181705890000000
  0.1250000000000000  0.7500000000000000  0.1181705890000000
  0.6250000000000000  0.7500000000000000  0.1181705890000000
  0.1250000000000000  0.2500000000000000  0.6181705890000000
  0.6250000000000000  0.2500000000000000  0.6181705890000000
  0.1250000000000000  0.7500000000000000  0.6181705890000000
  0.6250000000000000  0.7500000000000000  0.6181705890000000
  0.1250000000000000  0.2500000000000000  0.3681705890000000
  0.6250000000000000  0.2500000000000000  0.3681705890000000
  0.1250000000000000  0.7500000000000000  0.3681705890000000
  0.6250000000000000  0.7500000000000000  0.3681705890000000
  0.1250000000000000  0.2500000000000000  0.8681705890000000
  0.6250000000000000  0.2500000000000000  0.8681705890000000
  0.1250000000000000  0.7500000000000000  0.8681705890000000
  0.6250000000000000  0.7500000000000000  0.8681705890000000
  0.3750000000000000  0.0000000000000000  0.1181705890000000
  0.8750000000000000  0.0000000000000000  0.1181705890000000
  0.3750000000000000  0.5000000000000000  0.1181705890000000
  0.8750000000000000  0.5000000000000000  0.1181705890000000
  0.3750000000000000  0.0000000000000000  0.6181705890000000
  0.8750000000000000  0.0000000000000000  0.6181705890000000
  0.3750000000000000  0.5000000000000000  0.6181705890000000
  0.8750000000000000  0.5000000000000000  0.6181705890000000
  0.3750000000000000  0.0000000000000000  0.3681705890000000
  0.8750000000000000  0.0000000000000000  0.3681705890000000
  0.3750000000000000  0.5000000000000000  0.3681705890000000
  0.8750000000000000  0.5000000000000000  0.3681705890000000
  0.3750000000000000  0.0000000000000000  0.8681705890000000
  0.8750000000000000  0.0000000000000000  0.8681705890000000
  0.3750000000000000  0.5000000000000000  0.8681705890000000
  0.8750000000000000  0.5000000000000000  0.8681705890000000
  0.3750000000000000  0.2500000000000000  0.1181705890000000
  0.8750000000000000  0.2500000000000000  0.1181705890000000
  0.3750000000000000  0.7500000000000000  0.1181705890000000
  0.8750000000000000  0.7500000000000000  0.1181705890000000
  0.3750000000000000  0.2500000000000000  0.6181705890000000
  0.8750000000000000  0.2500000000000000  0.6181705890000000
  0.3750000000000000  0.7500000000000000  0.6181705890000000
  0.8750000000000000  0.7500000000000000  0.6181705890000000
  0.3750000000000000  0.2500000000000000  0.3681705890000000
  0.8750000000000000  0.2500000000000000  0.3681705890000000
  0.3750000000000000  0.7500000000000000  0.3681705890000000
  0.8750000000000000  0.7500000000000000  0.3681705890000000
  0.3750000000000000  0.2500000000000000  0.8681705890000000
  0.8750000000000000  0.2500000000000000  0.8681705890000000
  0.3750000000000000  0.7500000000000000  0.8681705890000000
  0.8750000000000000  0.7500000000000000  0.8681705890000000
  0.0000000000000000  0.1250000000000000  0.1181705145000000
  0.5000000000000000  0.1250000000000000  0.1181705145000000
  0.0000000000000000  0.6250000000000000  0.1181705145000000
  0.5000000000000000  0.6250000000000000  0.1181705145000000
  0.0000000000000000  0.1250000000000000  0.6181705145000000
  0.5000000000000000  0.1250000000000000  0.6181705145000000
  0.0000000000000000  0.6250000000000000  0.6181705145000000
  0.5000000000000000  0.6250000000000000  0.6181705145000000
  0.0000000000000000  0.1250000000000000  0.3681705000000000
  0.5000000000000000  0.1250000000000000  0.3681705000000000
  0.0000000000000000  0.6250000000000000  0.3681705000000000
  0.5000000000000000  0.6250000000000000  0.3681705000000000
  0.0000000000000000  0.1250000000000000  0.8681705000000000
  0.5000000000000000  0.1250000000000000  0.8681705000000000
  0.0000000000000000  0.6250000000000000  0.8681705000000000
  0.5000000000000000  0.6250000000000000  0.8681705000000000
  0.0000000000000000  0.3750000000000000  0.1181705145000000
  0.5000000000000000  0.3750000000000000  0.1181705145000000
  0.0000000000000000  0.8750000000000000  0.1181705145000000
  0.5000000000000000  0.8750000000000000  0.1181705145000000
  0.0000000000000000  0.3750000000000000  0.6181705145000000
  0.5000000000000000  0.3750000000000000  0.6181705145000000
  0.0000000000000000  0.8750000000000000  0.6181705145000000
  0.5000000000000000  0.8750000000000000  0.6181705145000000
  0.0000000000000000  0.3750000000000000  0.3681705000000000
  0.5000000000000000  0.3750000000000000  0.3681705000000000
  0.0000000000000000  0.8750000000000000  0.3681705000000000
  0.5000000000000000  0.8750000000000000  0.3681705000000000
  0.0000000000000000  0.3750000000000000  0.8681705000000000
  0.5000000000000000  0.3750000000000000  0.8681705000000000
  0.0000000000000000  0.8750000000000000  0.8681705000000000
  0.5000000000000000  0.8750000000000000  0.8681705000000000
  0.2500000000000000  0.1250000000000000  0.1181705145000000
  0.7500000000000000  0.1250000000000000  0.1181705145000000
  0.2500000000000000  0.6250000000000000  0.1181705145000000
  0.7500000000000000  0.6250000000000000  0.1181705145000000
  0.2500000000000000  0.1250000000000000  0.6181705145000000
  0.7500000000000000  0.1250000000000000  0.6181705145000000
  0.2500000000000000  0.6250000000000000  0.6181705145000000
  0.7500000000000000  0.6250000000000000  0.6181705145000000
  0.2500000000000000  0.1250000000000000  0.3681705000000000
  0.7500000000000000  0.1250000000000000  0.3681705000000000
  0.2500000000000000  0.6250000000000000  0.3681705000000000
  0.7500000000000000  0.6250000000000000  0.3681705000000000
  0.2500000000000000  0.1250000000000000  0.8681705000000000
  0.7500000000000000  0.1250000000000000  0.8681705000000000
  0.2500000000000000  0.6250000000000000  0.8681705000000000
  0.7500000000000000  0.6250000000000000  0.8681705000000000
  0.2500000000000000  0.3750000000000000  0.1181705145000000
  0.7500000000000000  0.3750000000000000  0.1181705145000000
  0.2500000000000000  0.8750000000000000  0.1181705145000000
  0.7500000000000000  0.8750000000000000  0.1181705145000000
  0.2500000000000000  0.3750000000000000  0.6181705145000000
  0.7500000000000000  0.3750000000000000  0.6181705145000000
  0.2500000000000000  0.8750000000000000  0.6181705145000000
  0.7500000000000000  0.8750000000000000  0.6181705145000000
  0.2500000000000000  0.3750000000000000  0.3681705000000000
  0.7500000000000000  0.3750000000000000  0.3681705000000000
  0.2500000000000000  0.8750000000000000  0.3681705000000000
  0.7500000000000000  0.8750000000000000  0.3681705000000000
  0.2500000000000000  0.3750000000000000  0.8681705000000000
  0.7500000000000000  0.3750000000000000  0.8681705000000000
  0.2500000000000000  0.8750000000000000  0.8681705000000000
  0.7500000000000000  0.8750000000000000  0.8681705000000000
