generated by phonopy
   1.0
    14.1786074795561241    0.0000000000000000    0.0000000000000000
     0.0000000000000000   14.1786074795561241    0.0000000000000000
     0.0000000000000000    0.0000000000000000   14.1786074795561241
Fe
 250
Direct
  0.0007052878792518  0.0000000000000000  0.0000000000000000
  0.2000000000000000  0.0000000000000000  0.0000000000000000
  0.4000000000000000  0.0000000000000000  0.0000000000000000
  0.6000000000000000  0.0000000000000000  0.0000000000000000
  0.7999999999999999  0.0000000000000000  0.0000000000000000
  0.0000000000000000  0.2000000000000000  0.0000000000000000
  0.2000000000000000  0.2000000000000000  0.0000000000000000
  0.4000000000000000  0.2000000000000000  0.0000000000000000
  0.6000000000000000  0.2000000000000000  0.0000000000000000
  0.7999999999999999  0.2000000000000000  0.0000000000000000
  0.0000000000000000  0.4000000000000000  0.0000000000000000
  0.2000000000000000  0.4000000000000000  0.0000000000000000
  0.4000000000000000  0.4000000000000000  0.0000000000000000
  0.6000000000000000  0.4000000000000000  0.0000000000000000
  0.7999999999999999  0.4000000000000000  0.0000000000000000
  0.0000000000000000  0.6000000000000000  0.0000000000000000
  0.2000000000000000  0.6000000000000000  0.0000000000000000
  0.4000000000000000  0.6000000000000000  0.0000000000000000
  0.6000000000000000  0.6000000000000000  0.0000000000000000
  0.7999999999999999  0.6000000000000000  0.0000000000000000
  0.0000000000000000  0.7999999999999999  0.0000000000000000
  0.2000000000000000  0.7999999999999999  0.0000000000000000
  0.4000000000000000  0.7999999999999999  0.0000000000000000
  0.6000000000000000  0.7999999999999999  0.0000000000000000
  0.7999999999999999  0.7999999999999999  0.0000000000000000
  0.0000000000000000  0.0000000000000000  0.2000000000000000
  0.2000000000000000  0.0000000000000000  0.2000000000000000
  0.4000000000000000  0.0000000000000000  0.2000000000000000
  0.6000000000000000  0.0000000000000000  0.2000000000000000
  0.7999999999999999  0.0000000000000000  0.2000000000000000
  0.0000000000000000  0.2000000000000000  0.2000000000000000
  0.2000000000000000  0.2000000000000000  0.2000000000000000
  0.4000000000000000  0.2000000000000000  0.2000000000000000
  0.6000000000000000  0.2000000000000000  0.2000000000000000
  0.7999999999999999  0.2000000000000000  0.2000000000000000
  0.0000000000000000  0.4000000000000000  0.2000000000000000
  0.2000000000000000  0.4000000000000000  0.2000000000000000
  0.4000000000000000  0.4000000000000000  0.2000000000000000
  0.6000000000000000  0.4000000000000000  0.2000000000000000
  0.7999999999999999  0.4000000000000000  0.2000000000000000
  0.0000000000000000  0.6000000000000000  0.2000000000000000
  0.2000000000000000  0.6000000000000000  0.2000000000000000
  0.4000000000000000  0.6000000000000000  0.2000000000000000
  0.6000000000000000  0.6000000000000000  0.2000000000000000
  0.7999999999999999  0.6000000000000000  0.2000000000000000
  0.0000000000000000  0.7999999999999999  0.2000000000000000
  0.2000000000000000  0.7999999999999999  0.2000000000000000
  0.4000000000000000  0.7999999999999999  0.2000000000000000
  0.6000000000000000  0.7999999999999999  0.2000000000000000
  0.7999999999999999  0.7999999999999999  0.2000000000000000
  0.0000000000000000  0.0000000000000000  0.4000000000000000
  0.2000000000000000  0.0000000000000000  0.4000000000000000
  0.4000000000000000  0.0000000000000000  0.4000000000000000
  0.6000000000000000  0.0000000000000000  0.4000000000000000
  0.7999999999999999  0.0000000000000000  0.4000000000000000
  0.0000000000000000  0.2000000000000000  0.4000000000000000
  0.2000000000000000  0.2000000000000000  0.4000000000000000
  0.4000000000000000  0.2000000000000000  0.4000000000000000
  0.6000000000000000  0.2000000000000000  0.4000000000000000
  0.7999999999999999  0.2000000000000000  0.4000000000000000
  0.0000000000000000  0.4000000000000000  0.4000000000000000
  0.2000000000000000  0.4000000000000000  0.4000000000000000
  0.4000000000000000  0.4000000000000000  0.4000000000000000
  0.6000000000000000  0.4000000000000000  0.4000000000000000
  0.7999999999999999  0.4000000000000000  0.4000000000000000
  0.0000000000000000  0.6000000000000000  0.4000000000000000
  0.2000000000000000  0.6000000000000000  0.4000000000000000
  0.4000000000000000  0.6000000000000000  0.4000000000000000
  0.6000000000000000  0.6000000000000000  0.4000000000000000
  0.7999999999999999  0.6000000000000000  0.4000000000000000
  0.0000000000000000  0.7999999999999999  0.4000000000000000
  0.2000000000000000  0.7999999999999999  0.4000000000000000
  0.4000000000000000  0.7999999999999999  0.4000000000000000
  0.6000000000000000  0.7999999999999999  0.4000000000000000
  0.7999999999999999  0.7999999999999999  0.4000000000000000
  0.0000000000000000  0.0000000000000000  0.6000000000000000
  0.2000000000000000  0.0000000000000000  0.6000000000000000
  0.4000000000000000  0.0000000000000000  0.6000000000000000
  0.6000000000000000  0.0000000000000000  0.6000000000000000
  0.7999999999999999  0.0000000000000000  0.6000000000000000
  0.0000000000000000  0.2000000000000000  0.6000000000000000
  0.2000000000000000  0.2000000000000000  0.6000000000000000
  0.4000000000000000  0.2000000000000000  0.6000000000000000
  0.6000000000000000  0.2000000000000000  0.6000000000000000
  0.7999999999999999  0.2000000000000000  0.6000000000000000
  0.0000000000000000  0.4000000000000000  0.6000000000000000
  0.2000000000000000  0.4000000000000000  0.6000000000000000
  0.4000000000000000  0.4000000000000000  0.6000000000000000
  0.6000000000000000  0.4000000000000000  0.6000000000000000
  0.7999999999999999  0.4000000000000000  0.6000000000000000
  0.0000000000000000  0.6000000000000000  0.6000000000000000
  0.2000000000000000  0.6000000000000000  0.6000000000000000
  0.4000000000000000  0.6000000000000000  0.6000000000000000
  0.6000000000000000  0.6000000000000000  0.6000000000000000
  0.7999999999999999  0.6000000000000000  0.6000000000000000
  0.0000000000000000  0.7999999999999999  0.6000000000000000
  0.2000000000000000  0.7999999999999999  0.6000000000000000
  0.4000000000000000  0.7999999999999999  0.6000000000000000
  0.6000000000000000  0.7999999999999999  0.6000000000000000
  0.7999999999999999  0.7999999999999999  0.6000000000000000
  0.0000000000000000  0.0000000000000000  0.7999999999999999
  0.2000000000000000  0.0000000000000000  0.7999999999999999
  0.4000000000000000  0.0000000000000000  0.7999999999999999
  0.6000000000000000  0.0000000000000000  0.7999999999999999
  0.7999999999999999  0.0000000000000000  0.7999999999999999
  0.0000000000000000  0.2000000000000000  0.7999999999999999
  0.2000000000000000  0.2000000000000000  0.7999999999999999
  0.4000000000000000  0.2000000000000000  0.7999999999999999
  0.6000000000000000  0.2000000000000000  0.7999999999999999
  0.7999999999999999  0.2000000000000000  0.7999999999999999
  0.0000000000000000  0.4000000000000000  0.7999999999999999
  0.2000000000000000  0.4000000000000000  0.7999999999999999
  0.4000000000000000  0.4000000000000000  0.7999999999999999
  0.6000000000000000  0.4000000000000000  0.7999999999999999
  0.7999999999999999  0.4000000000000000  0.7999999999999999
  0.0000000000000000  0.6000000000000000  0.7999999999999999
  0.2000000000000000  0.6000000000000000  0.7999999999999999
  0.4000000000000000  0.6000000000000000  0.7999999999999999
  0.6000000000000000  0.6000000000000000  0.7999999999999999
  0.7999999999999999  0.6000000000000000  0.7999999999999999
  0.0000000000000000  0.7999999999999999  0.7999999999999999
  0.2000000000000000  0.7999999999999999  0.7999999999999999
  0.4000000000000000  0.7999999999999999  0.7999999999999999
  0.6000000000000000  0.7999999999999999  0.7999999999999999
  0.7999999999999999  0.7999999999999999  0.7999999999999999
  0.1000000000000000  0.1000000000000000  0.1000000000000000
  0.3000000000000000  0.1000000000000000  0.1000000000000000
  0.4999999999999999  0.1000000000000000  0.1000000000000000
  0.7000000000000001  0.1000000000000000  0.1000000000000000
  0.9000000000000000  0.1000000000000000  0.1000000000000000
  0.1000000000000000  0.3000000000000000  0.1000000000000000
  0.3000000000000000  0.3000000000000000  0.1000000000000000
  0.4999999999999999  0.3000000000000000  0.1000000000000000
  0.7000000000000001  0.3000000000000000  0.1000000000000000
  0.9000000000000000  0.3000000000000000  0.1000000000000000
  0.1000000000000000  0.4999999999999999  0.1000000000000000
  0.3000000000000000  0.4999999999999999  0.1000000000000000
  0.4999999999999999  0.4999999999999999  0.1000000000000000
  0.7000000000000001  0.4999999999999999  0.1000000000000000
  0.9000000000000000  0.4999999999999999  0.1000000000000000
  0.1000000000000000  0.7000000000000001  0.1000000000000000
  0.3000000000000000  0.7000000000000001  0.1000000000000000
  0.4999999999999999  0.7000000000000001  0.1000000000000000
  0.7000000000000001  0.7000000000000001  0.1000000000000000
  0.9000000000000000  0.7000000000000001  0.1000000000000000
  0.1000000000000000  0.9000000000000000  0.1000000000000000
  0.3000000000000000  0.9000000000000000  0.1000000000000000
  0.4999999999999999  0.9000000000000000  0.1000000000000000
  0.7000000000000001  0.9000000000000000  0.1000000000000000
  0.9000000000000000  0.9000000000000000  0.1000000000000000
  0.1000000000000000  0.1000000000000000  0.3000000000000000
  0.3000000000000000  0.1000000000000000  0.3000000000000000
  0.4999999999999999  0.1000000000000000  0.3000000000000000
  0.7000000000000001  0.1000000000000000  0.3000000000000000
  0.9000000000000000  0.1000000000000000  0.3000000000000000
  0.1000000000000000  0.3000000000000000  0.3000000000000000
  0.3000000000000000  0.3000000000000000  0.3000000000000000
  0.4999999999999999  0.3000000000000000  0.3000000000000000
  0.7000000000000001  0.3000000000000000  0.3000000000000000
  0.9000000000000000  0.3000000000000000  0.3000000000000000
  0.1000000000000000  0.4999999999999999  0.3000000000000000
  0.3000000000000000  0.4999999999999999  0.3000000000000000
  0.4999999999999999  0.4999999999999999  0.3000000000000000
  0.7000000000000001  0.4999999999999999  0.3000000000000000
  0.9000000000000000  0.4999999999999999  0.3000000000000000
  0.1000000000000000  0.7000000000000001  0.3000000000000000
  0.3000000000000000  0.7000000000000001  0.3000000000000000
  0.4999999999999999  0.7000000000000001  0.3000000000000000
  0.7000000000000001  0.7000000000000001  0.3000000000000000
  0.9000000000000000  0.7000000000000001  0.3000000000000000
  0.1000000000000000  0.9000000000000000  0.3000000000000000
  0.3000000000000000  0.9000000000000000  0.3000000000000000
  0.4999999999999999  0.9000000000000000  0.3000000000000000
  0.7000000000000001  0.9000000000000000  0.3000000000000000
  0.9000000000000000  0.9000000000000000  0.3000000000000000
  0.1000000000000000  0.1000000000000000  0.4999999999999999
  0.3000000000000000  0.1000000000000000  0.4999999999999999
  0.4999999999999999  0.1000000000000000  0.4999999999999999
  0.7000000000000001  0.1000000000000000  0.4999999999999999
  0.9000000000000000  0.1000000000000000  0.4999999999999999
  0.1000000000000000  0.3000000000000000  0.4999999999999999
  0.3000000000000000  0.3000000000000000  0.4999999999999999
  0.4999999999999999  0.3000000000000000  0.4999999999999999
  0.7000000000000001  0.3000000000000000  0.4999999999999999
  0.9000000000000000  0.3000000000000000  0.4999999999999999
  0.1000000000000000  0.4999999999999999  0.4999999999999999
  0.3000000000000000  0.4999999999999999  0.4999999999999999
  0.4999999999999999  0.4999999999999999  0.4999999999999999
  0.7000000000000001  0.4999999999999999  0.4999999999999999
  0.9000000000000000  0.4999999999999999  0.4999999999999999
  0.1000000000000000  0.7000000000000001  0.4999999999999999
  0.3000000000000000  0.7000000000000001  0.4999999999999999
  0.4999999999999999  0.7000000000000001  0.4999999999999999
  0.7000000000000001  0.7000000000000001  0.4999999999999999
  0.9000000000000000  0.7000000000000001  0.4999999999999999
  0.1000000000000000  0.9000000000000000  0.4999999999999999
  0.3000000000000000  0.9000000000000000  0.4999999999999999
  0.4999999999999999  0.9000000000000000  0.4999999999999999
  0.7000000000000001  0.9000000000000000  0.4999999999999999
  0.9000000000000000  0.9000000000000000  0.4999999999999999
  0.1000000000000000  0.1000000000000000  0.7000000000000001
  0.3000000000000000  0.1000000000000000  0.7000000000000001
  0.4999999999999999  0.1000000000000000  0.7000000000000001
  0.7000000000000001  0.1000000000000000  0.7000000000000001
  0.9000000000000000  0.1000000000000000  0.7000000000000001
  0.1000000000000000  0.3000000000000000  0.7000000000000001
  0.3000000000000000  0.3000000000000000  0.7000000000000001
  0.4999999999999999  0.3000000000000000  0.7000000000000001
  0.7000000000000001  0.3000000000000000  0.7000000000000001
  0.9000000000000000  0.3000000000000000  0.7000000000000001
  0.1000000000000000  0.4999999999999999  0.7000000000000001
  0.3000000000000000  0.4999999999999999  0.7000000000000001
  0.4999999999999999  0.4999999999999999  0.7000000000000001
  0.7000000000000001  0.4999999999999999  0.7000000000000001
  0.9000000000000000  0.4999999999999999  0.7000000000000001
  0.1000000000000000  0.7000000000000001  0.7000000000000001
  0.3000000000000000  0.7000000000000001  0.7000000000000001
  0.4999999999999999  0.7000000000000001  0.7000000000000001
  0.7000000000000001  0.7000000000000001  0.7000000000000001
  0.9000000000000000  0.7000000000000001  0.7000000000000001
  0.1000000000000000  0.9000000000000000  0.7000000000000001
  0.3000000000000000  0.9000000000000000  0.7000000000000001
  0.4999999999999999  0.9000000000000000  0.7000000000000001
  0.7000000000000001  0.9000000000000000  0.7000000000000001
  0.9000000000000000  0.9000000000000000  0.7000000000000001
  0.1000000000000000  0.1000000000000000  0.9000000000000000
  0.3000000000000000  0.1000000000000000  0.9000000000000000
  0.4999999999999999  0.1000000000000000  0.9000000000000000
  0.7000000000000001  0.1000000000000000  0.9000000000000000
  0.9000000000000000  0.1000000000000000  0.9000000000000000
  0.1000000000000000  0.3000000000000000  0.9000000000000000
  0.3000000000000000  0.3000000000000000  0.9000000000000000
  0.4999999999999999  0.3000000000000000  0.9000000000000000
  0.7000000000000001  0.3000000000000000  0.9000000000000000
  0.9000000000000000  0.3000000000000000  0.9000000000000000
  0.1000000000000000  0.4999999999999999  0.9000000000000000
  0.3000000000000000  0.4999999999999999  0.9000000000000000
  0.4999999999999999  0.4999999999999999  0.9000000000000000
  0.7000000000000001  0.4999999999999999  0.9000000000000000
  0.9000000000000000  0.4999999999999999  0.9000000000000000
  0.1000000000000000  0.7000000000000001  0.9000000000000000
  0.3000000000000000  0.7000000000000001  0.9000000000000000
  0.4999999999999999  0.7000000000000001  0.9000000000000000
  0.7000000000000001  0.7000000000000001  0.9000000000000000
  0.9000000000000000  0.7000000000000001  0.9000000000000000
  0.1000000000000000  0.9000000000000000  0.9000000000000000
  0.3000000000000000  0.9000000000000000  0.9000000000000000
  0.4999999999999999  0.9000000000000000  0.9000000000000000
  0.7000000000000001  0.9000000000000000  0.9000000000000000
  0.9000000000000000  0.9000000000000000  0.9000000000000000
