Fe2-1                                   
   1.00000000000000     
     2.8357214959112249    0.0000000000000000   -0.0000000000000000
    -0.0000000000000000    2.8357214959112249   -0.0000000000000000
     0.0000000000000000   -0.0000000000000000    2.8357214959112249
   Fe
     2
Direct
 -0.0000000000000000 -0.0000000000000000  0.0000000000000000
  0.5000000000000000  0.5000000000000000  0.5000000000000000
 
  0.00000000E+00  0.00000000E+00  0.00000000E+00
  0.00000000E+00  0.00000000E+00  0.00000000E+00
